Maximize
 +10000 tinInvest +1000 dropInvest +100000 tinRedeem +1000000 dropRedeem
Subject To
 c1: +tinInvest +dropInvest -tinRedeem -dropRedeem <= 20000000000000000000
 c2: +tinInvest +dropInvest -tinRedeem -dropRedeem >= -980000000000000000000
 c3: +85000000000000000000000000 tinInvest -15000000000000000000000000 dropInvest -85000000000000000000000000 tinRedeem +15000000000000000000000000 dropRedeem >= -500000000000000000000000000000000000000000000
 c4: -80000000000000000000000000 tinInvest +20000000000000000000000000 dropInvest +80000000000000000000000000 tinRedeem -20000000000000000000000000 dropRedeem >= 0
Bounds
0 <= tinInvest  <= 12500000000000000001
0 <= dropInvest <= 40000000000000000000
0 <= tinRedeem  <= 10000000000000000000
0 <= dropRedeem <= 30000000000000000000
End